7
1 0 0 318
2 0 0 24
3 0 196 226
4 0 161 186
5 0 25 53
6 0 78 98
7 0 185 206
1 2 16
1 3 31
1 4 17
1 5 27
1 6 27
1 7 31
2 1 16
2 3 25
2 4 24
2 5 27
2 6 34
2 7 36
3 1 31
3 2 25
3 4 23
3 5 11
3 6 26
3 7 24
4 1 17
4 2 24
4 3 23
4 5 14
4 6 10
4 7 14
5 1 27
5 2 27
5 3 11
5 4 14
5 6 15
5 7 13
6 1 27
6 2 34
6 3 26
6 4 10
6 5 15
6 7 5
7 1 31
7 2 36
7 3 24
7 4 14
7 5 13
7 6 5
